myproject/instances/20nodes/rnd13_20.tsp
NAME : rnd13_20.tsp
TYPE : TSP
DIMENSION : 20
EDGE_WEIGHT_TYPE : EUC_2D
NODE_COORD_SECTION
1 958 983
2 449 175
3 556 995
4 397 975
5 644 46
6 917 436
7 70 938
8 683 284
9 767 208
10 23 509
11 522 164
12 859 317
13 978 88
14 26 831
15 336 320
16 992 739
17 111 868
18 382 440
19 343 635
20 177 647
