myproject/instances/20nodes/rnd13_20.opt.tour
NAME : rnd13_20.tsp.tsp.opt.tour
TYPE : TOUR
DIMENSION : 20
TOUR_SECTION
1
3
4
17
7
14
10
20
19
18
15
2
11
5
8
9
13
12
6
16
-1